p cnf 484 1
484 0
w 1 0.29282
w 2 1 0
w 2 -1 1
w 3 2 0
w 3 -2 1
w 4 3 0
w 4 -3 1
w 5 4 1
w 5 -4 0
w 6 5 0
w 6 -5 1
w 7 6 1
w 7 -6 0
w 8 7 0
w 8 -7 1
w 9 8 1
w 9 -8 0
w 10 9 0
w 10 -9 1
w 11 10 1
w 11 -10 0
w 12 11 1
w 12 -11 0
w 13 12 0
w 13 -12 1
w 14 13 1
w 14 -13 0
w 15 14 1
w 15 -14 0
w 16 15 0
w 16 -15 1
w 17 16 1
w 17 -16 0
w 18 17 1
w 18 -17 0
w 19 18 1
w 19 -18 0
w 20 19 0
w 20 -19 1
w 21 20 0
w 21 -20 1
w 22 21 0
w 22 -21 1
w 23 1 1
w 23 -1 0
w 24 23 2 1
w 24 23 -2 0
w 24 -23 2 0
w 24 -23 -2 0
w 25 24 3 1
w 25 24 -3 0
w 25 -24 3 0
w 25 -24 -3 1
w 26 25 4 0
w 26 25 -4 0
w 26 -25 4 1
w 26 -25 -4 1
w 27 26 5 0
w 27 26 -5 1
w 27 -26 5 0
w 27 -26 -5 1
w 28 27 6 0
w 28 27 -6 0
w 28 -27 6 1
w 28 -27 -6 0
w 29 28 7 1
w 29 28 -7 0
w 29 -28 7 1
w 29 -28 -7 1
w 30 29 8 1
w 30 29 -8 0
w 30 -29 8 1
w 30 -29 -8 1
w 31 30 9 0
w 31 30 -9 1
w 31 -30 9 1
w 31 -30 -9 0
w 32 31 10 0
w 32 31 -10 0
w 32 -31 10 0
w 32 -31 -10 1
w 33 32 11 0
w 33 32 -11 1
w 33 -32 11 1
w 33 -32 -11 0
w 34 33 12 1
w 34 33 -12 0
w 34 -33 12 1
w 34 -33 -12 0
w 35 34 13 0
w 35 34 -13 1
w 35 -34 13 0
w 35 -34 -13 1
w 36 35 14 1
w 36 35 -14 0
w 36 -35 14 1
w 36 -35 -14 0
w 37 36 15 1
w 37 36 -15 0
w 37 -36 15 0
w 37 -36 -15 0
w 38 37 16 0
w 38 37 -16 0
w 38 -37 16 1
w 38 -37 -16 1
w 39 38 17 1
w 39 38 -17 1
w 39 -38 17 1
w 39 -38 -17 0
w 40 39 18 0
w 40 39 -18 1
w 40 -39 18 0
w 40 -39 -18 1
w 41 40 19 0
w 41 40 -19 1
w 41 -40 19 1
w 41 -40 -19 1
w 42 41 20 1
w 42 41 -20 0
w 42 -41 20 0
w 42 -41 -20 0
w 43 42 21 1
w 43 42 -21 0
w 43 -42 21 1
w 43 -42 -21 0
w 44 43 22 0
w 44 43 -22 0
w 44 -43 22 1
w 44 -43 -22 0
w 45 23 1
w 45 -23 0
w 46 45 24 1
w 46 45 -24 0
w 46 -45 24 0
w 46 -45 -24 0
w 47 46 25 0
w 47 46 -25 1
w 47 -46 25 1
w 47 -46 -25 0
w 48 47 26 0
w 48 47 -26 1
w 48 -47 26 0
w 48 -47 -26 1
w 49 48 27 0
w 49 48 -27 0
w 49 -48 27 1
w 49 -48 -27 0
w 50 49 28 0
w 50 49 -28 0
w 50 -49 28 0
w 50 -49 -28 1
w 51 50 29 1
w 51 50 -29 1
w 51 -50 29 0
w 51 -50 -29 0
w 52 51 30 0
w 52 51 -30 1
w 52 -51 30 0
w 52 -51 -30 0
w 53 52 31 0
w 53 52 -31 0
w 53 -52 31 1
w 53 -52 -31 1
w 54 53 32 1
w 54 53 -32 1
w 54 -53 32 0
w 54 -53 -32 0
w 55 54 33 0
w 55 54 -33 0
w 55 -54 33 0
w 55 -54 -33 1
w 56 55 34 0
w 56 55 -34 0
w 56 -55 34 0
w 56 -55 -34 1
w 57 56 35 1
w 57 56 -35 0
w 57 -56 35 0
w 57 -56 -35 1
w 58 57 36 0
w 58 57 -36 1
w 58 -57 36 0
w 58 -57 -36 1
w 59 58 37 1
w 59 58 -37 1
w 59 -58 37 0
w 59 -58 -37 0
w 60 59 38 1
w 60 59 -38 0
w 60 -59 38 1
w 60 -59 -38 0
w 61 60 39 0.393355
w 61 60 -39 0.463136
w 61 -60 39 0.127764
w 61 -60 -39 0.119957
w 62 61 40 1
w 62 61 -40 0
w 62 -61 40 0
w 62 -61 -40 1
w 63 62 41 1
w 63 62 -41 0
w 63 -62 41 0
w 63 -62 -41 1
w 64 63 42 1
w 64 63 -42 1
w 64 -63 42 0
w 64 -63 -42 1
w 65 64 43 0
w 65 64 -43 1
w 65 -64 43 1
w 65 -64 -43 1
w 66 65 44 1
w 66 65 -44 1
w 66 -65 44 0
w 66 -65 -44 1
w 67 45 0
w 67 -45 1
w 68 67 46 1
w 68 67 -46 0
w 68 -67 46 1
w 68 -67 -46 0
w 69 68 47 1
w 69 68 -47 0
w 69 -68 47 0
w 69 -68 -47 0
w 70 69 48 0
w 70 69 -48 1
w 70 -69 48 0
w 70 -69 -48 1
w 71 70 49 0.851923
w 71 70 -49 0.855865
w 71 -70 49 0.973635
w 71 -70 -49 0.0163515
w 72 71 50 0.369273
w 72 71 -50 0.38112
w 72 -71 50 0.870992
w 72 -71 -50 0.0319375
w 73 72 51 0
w 73 72 -51 1
w 73 -72 51 1
w 73 -72 -51 1
w 74 73 52 1
w 74 73 -52 1
w 74 -73 52 1
w 74 -73 -52 0
w 75 74 53 0.667978
w 75 74 -53 0.0776538
w 75 -74 53 0.361907
w 75 -74 -53 0.963339
w 76 75 54 0
w 76 75 -54 1
w 76 -75 54 0
w 76 -75 -54 0
w 77 76 55 1
w 77 76 -55 1
w 77 -76 55 0
w 77 -76 -55 0
w 78 77 56 1
w 78 77 -56 1
w 78 -77 56 0
w 78 -77 -56 0
w 79 78 57 1
w 79 78 -57 1
w 79 -78 57 1
w 79 -78 -57 0
w 80 79 58 0
w 80 79 -58 1
w 80 -79 58 1
w 80 -79 -58 1
w 81 80 59 1
w 81 80 -59 0
w 81 -80 59 0
w 81 -80 -59 0
w 82 81 60 0
w 82 81 -60 0
w 82 -81 60 1
w 82 -81 -60 0
w 83 82 61 0
w 83 82 -61 1
w 83 -82 61 1
w 83 -82 -61 0
w 84 83 62 0.354927
w 84 83 -62 0.0990415
w 84 -83 62 0.0612951
w 84 -83 -62 0.398992
w 85 84 63 1
w 85 84 -63 0
w 85 -84 63 1
w 85 -84 -63 0
w 86 85 64 1
w 86 85 -64 0
w 86 -85 64 0
w 86 -85 -64 1
w 87 86 65 1
w 87 86 -65 0
w 87 -86 65 0
w 87 -86 -65 0
w 88 87 66 0
w 88 87 -66 1
w 88 -87 66 1
w 88 -87 -66 1
w 89 67 1
w 89 -67 0
w 90 89 68 1
w 90 89 -68 0
w 90 -89 68 0
w 90 -89 -68 1
w 91 90 69 0
w 91 90 -69 0
w 91 -90 69 1
w 91 -90 -69 1
w 92 91 70 0
w 92 91 -70 0
w 92 -91 70 1
w 92 -91 -70 0
w 93 92 71 0.915215
w 93 92 -71 0.278128
w 93 -92 71 0.22803
w 93 -92 -71 0.65776
w 94 93 72 0
w 94 93 -72 1
w 94 -93 72 1
w 94 -93 -72 0
w 95 94 73 0
w 95 94 -73 1
w 95 -94 73 0
w 95 -94 -73 0
w 96 95 74 0
w 96 95 -74 1
w 96 -95 74 1
w 96 -95 -74 1
w 97 96 75 1
w 97 96 -75 1
w 97 -96 75 0
w 97 -96 -75 1
w 98 97 76 0
w 98 97 -76 1
w 98 -97 76 0
w 98 -97 -76 0
w 99 98 77 1
w 99 98 -77 1
w 99 -98 77 1
w 99 -98 -77 0
w 100 99 78 1
w 100 99 -78 1
w 100 -99 78 0
w 100 -99 -78 1
w 101 100 79 0
w 101 100 -79 1
w 101 -100 79 1
w 101 -100 -79 0
w 102 101 80 0.66642
w 102 101 -80 0.730924
w 102 -101 80 0.0222509
w 102 -101 -80 0.860804
w 103 102 81 1
w 103 102 -81 1
w 103 -102 81 0
w 103 -102 -81 1
w 104 103 82 0
w 104 103 -82 1
w 104 -103 82 1
w 104 -103 -82 0
w 105 104 83 0
w 105 104 -83 0
w 105 -104 83 0
w 105 -104 -83 1
w 106 105 84 0
w 106 105 -84 0
w 106 -105 84 0
w 106 -105 -84 1
w 107 106 85 1
w 107 106 -85 0
w 107 -106 85 1
w 107 -106 -85 1
w 108 107 86 0.256258
w 108 107 -86 0.674635
w 108 -107 86 0.968929
w 108 -107 -86 0.117062
w 109 108 87 1
w 109 108 -87 1
w 109 -108 87 0
w 109 -108 -87 0
w 110 109 88 0
w 110 109 -88 0
w 110 -109 88 1
w 110 -109 -88 1
w 111 89 0
w 111 -89 1
w 112 111 90 1
w 112 111 -90 0
w 112 -111 90 1
w 112 -111 -90 1
w 113 112 91 1
w 113 112 -91 0
w 113 -112 91 0
w 113 -112 -91 1
w 114 113 92 0
w 114 113 -92 0
w 114 -113 92 0
w 114 -113 -92 1
w 115 114 93 1
w 115 114 -93 0
w 115 -114 93 1
w 115 -114 -93 0
w 116 115 94 0
w 116 115 -94 0
w 116 -115 94 0
w 116 -115 -94 1
w 117 116 95 0
w 117 116 -95 0
w 117 -116 95 0
w 117 -116 -95 1
w 118 117 96 0
w 118 117 -96 0
w 118 -117 96 1
w 118 -117 -96 1
w 119 118 97 1
w 119 118 -97 1
w 119 -118 97 0
w 119 -118 -97 1
w 120 119 98 1
w 120 119 -98 0
w 120 -119 98 0
w 120 -119 -98 1
w 121 120 99 1
w 121 120 -99 1
w 121 -120 99 1
w 121 -120 -99 0
w 122 121 100 1
w 122 121 -100 0
w 122 -121 100 0
w 122 -121 -100 1
w 123 122 101 1
w 123 122 -101 1
w 123 -122 101 0
w 123 -122 -101 1
w 124 123 102 1
w 124 123 -102 0
w 124 -123 102 1
w 124 -123 -102 0
w 125 124 103 1
w 125 124 -103 1
w 125 -124 103 0
w 125 -124 -103 1
w 126 125 104 0
w 126 125 -104 0
w 126 -125 104 1
w 126 -125 -104 0
w 127 126 105 0
w 127 126 -105 0
w 127 -126 105 1
w 127 -126 -105 1
w 128 127 106 0
w 128 127 -106 0
w 128 -127 106 1
w 128 -127 -106 0
w 129 128 107 0.0732661
w 129 128 -107 0.87046
w 129 -128 107 0.900722
w 129 -128 -107 0.859347
w 130 129 108 0
w 130 129 -108 0
w 130 -129 108 1
w 130 -129 -108 1
w 131 130 109 0
w 131 130 -109 1
w 131 -130 109 0
w 131 -130 -109 1
w 132 131 110 1
w 132 131 -110 1
w 132 -131 110 1
w 132 -131 -110 0
w 133 111 1
w 133 -111 0
w 134 133 112 0
w 134 133 -112 0
w 134 -133 112 1
w 134 -133 -112 0
w 135 134 113 0
w 135 134 -113 1
w 135 -134 113 1
w 135 -134 -113 1
w 136 135 114 0
w 136 135 -114 0
w 136 -135 114 0
w 136 -135 -114 1
w 137 136 115 0.976703
w 137 136 -115 0.421313
w 137 -136 115 0.42299
w 137 -136 -115 0.19306
w 138 137 116 1
w 138 137 -116 1
w 138 -137 116 0
w 138 -137 -116 1
w 139 138 117 1
w 139 138 -117 0
w 139 -138 117 0
w 139 -138 -117 1
w 140 139 118 0
w 140 139 -118 1
w 140 -139 118 1
w 140 -139 -118 1
w 141 140 119 0
w 141 140 -119 1
w 141 -140 119 1
w 141 -140 -119 1
w 142 141 120 0
w 142 141 -120 1
w 142 -141 120 1
w 142 -141 -120 0
w 143 142 121 0
w 143 142 -121 0
w 143 -142 121 1
w 143 -142 -121 0
w 144 143 122 0
w 144 143 -122 1
w 144 -143 122 0
w 144 -143 -122 0
w 145 144 123 0
w 145 144 -123 0
w 145 -144 123 1
w 145 -144 -123 0
w 146 145 124 0
w 146 145 -124 0
w 146 -145 124 1
w 146 -145 -124 0
w 147 146 125 1
w 147 146 -125 0
w 147 -146 125 1
w 147 -146 -125 0
w 148 147 126 0.295446
w 148 147 -126 0.738369
w 148 -147 126 0.416262
w 148 -147 -126 0.930805
w 149 148 127 1
w 149 148 -127 0
w 149 -148 127 1
w 149 -148 -127 1
w 150 149 128 0
w 150 149 -128 1
w 150 -149 128 1
w 150 -149 -128 1
w 151 150 129 0.821696
w 151 150 -129 0.393618
w 151 -150 129 0.410112
w 151 -150 -129 0.850718
w 152 151 130 1
w 152 151 -130 1
w 152 -151 130 0
w 152 -151 -130 0
w 153 152 131 0.601974
w 153 152 -131 0.0764738
w 153 -152 131 0.0103093
w 153 -152 -131 0.466697
w 154 153 132 0
w 154 153 -132 0
w 154 -153 132 1
w 154 -153 -132 0
w 155 133 0.994631
w 155 -133 0.203097
w 156 155 134 1
w 156 155 -134 0
w 156 -155 134 0
w 156 -155 -134 0
w 157 156 135 1
w 157 156 -135 0
w 157 -156 135 1
w 157 -156 -135 1
w 158 157 136 1
w 158 157 -136 1
w 158 -157 136 0
w 158 -157 -136 0
w 159 158 137 0
w 159 158 -137 1
w 159 -158 137 0
w 159 -158 -137 0
w 160 159 138 1
w 160 159 -138 0
w 160 -159 138 0
w 160 -159 -138 0
w 161 160 139 1
w 161 160 -139 1
w 161 -160 139 1
w 161 -160 -139 0
w 162 161 140 0.920291
w 162 161 -140 0.43161
w 162 -161 140 0.691813
w 162 -161 -140 0.406817
w 163 162 141 1
w 163 162 -141 0
w 163 -162 141 0
w 163 -162 -141 1
w 164 163 142 1
w 164 163 -142 1
w 164 -163 142 0
w 164 -163 -142 1
w 165 164 143 0
w 165 164 -143 1
w 165 -164 143 0
w 165 -164 -143 0
w 166 165 144 0
w 166 165 -144 1
w 166 -165 144 1
w 166 -165 -144 0
w 167 166 145 0
w 167 166 -145 0
w 167 -166 145 1
w 167 -166 -145 0
w 168 167 146 1
w 168 167 -146 0
w 168 -167 146 1
w 168 -167 -146 1
w 169 168 147 1
w 169 168 -147 0
w 169 -168 147 0
w 169 -168 -147 1
w 170 169 148 0
w 170 169 -148 1
w 170 -169 148 1
w 170 -169 -148 0
w 171 170 149 1
w 171 170 -149 0
w 171 -170 149 1
w 171 -170 -149 1
w 172 171 150 0
w 172 171 -150 1
w 172 -171 150 0
w 172 -171 -150 1
w 173 172 151 0
w 173 172 -151 0
w 173 -172 151 0
w 173 -172 -151 1
w 174 173 152 1
w 174 173 -152 0
w 174 -173 152 0
w 174 -173 -152 1
w 175 174 153 1
w 175 174 -153 0
w 175 -174 153 0
w 175 -174 -153 1
w 176 175 154 0
w 176 175 -154 1
w 176 -175 154 0
w 176 -175 -154 1
w 177 155 0
w 177 -155 1
w 178 177 156 0
w 178 177 -156 1
w 178 -177 156 0
w 178 -177 -156 1
w 179 178 157 0
w 179 178 -157 1
w 179 -178 157 1
w 179 -178 -157 0
w 180 179 158 1
w 180 179 -158 0
w 180 -179 158 0
w 180 -179 -158 1
w 181 180 159 0
w 181 180 -159 1
w 181 -180 159 0
w 181 -180 -159 0
w 182 181 160 1
w 182 181 -160 0
w 182 -181 160 0
w 182 -181 -160 0
w 183 182 161 0
w 183 182 -161 1
w 183 -182 161 1
w 183 -182 -161 1
w 184 183 162 0
w 184 183 -162 0
w 184 -183 162 1
w 184 -183 -162 1
w 185 184 163 0.16639
w 185 184 -163 0.644523
w 185 -184 163 0.796769
w 185 -184 -163 0.173462
w 186 185 164 0
w 186 185 -164 1
w 186 -185 164 1
w 186 -185 -164 1
w 187 186 165 1
w 187 186 -165 0
w 187 -186 165 1
w 187 -186 -165 1
w 188 187 166 1
w 188 187 -166 1
w 188 -187 166 0
w 188 -187 -166 1
w 189 188 167 0
w 189 188 -167 0
w 189 -188 167 1
w 189 -188 -167 1
w 190 189 168 1
w 190 189 -168 1
w 190 -189 168 1
w 190 -189 -168 0
w 191 190 169 1
w 191 190 -169 1
w 191 -190 169 0
w 191 -190 -169 0
w 192 191 170 0
w 192 191 -170 0
w 192 -191 170 1
w 192 -191 -170 1
w 193 192 171 0
w 193 192 -171 1
w 193 -192 171 1
w 193 -192 -171 1
w 194 193 172 1
w 194 193 -172 0
w 194 -193 172 0
w 194 -193 -172 0
w 195 194 173 0
w 195 194 -173 1
w 195 -194 173 0
w 195 -194 -173 0
w 196 195 174 1
w 196 195 -174 0
w 196 -195 174 0
w 196 -195 -174 0
w 197 196 175 0
w 197 196 -175 1
w 197 -196 175 0
w 197 -196 -175 0
w 198 197 176 0
w 198 197 -176 1
w 198 -197 176 0
w 198 -197 -176 0
w 199 177 1
w 199 -177 0
w 200 199 178 0
w 200 199 -178 1
w 200 -199 178 0
w 200 -199 -178 0
w 201 200 179 0.969409
w 201 200 -179 0.0500885
w 201 -200 179 0.0660432
w 201 -200 -179 0.248039
w 202 201 180 0
w 202 201 -180 0
w 202 -201 180 0
w 202 -201 -180 1
w 203 202 181 1
w 203 202 -181 1
w 203 -202 181 0
w 203 -202 -181 1
w 204 203 182 1
w 204 203 -182 0
w 204 -203 182 0
w 204 -203 -182 1
w 205 204 183 0.210925
w 205 204 -183 0.151263
w 205 -204 183 0.784567
w 205 -204 -183 0.859164
w 206 205 184 0
w 206 205 -184 1
w 206 -205 184 1
w 206 -205 -184 0
w 207 206 185 1
w 207 206 -185 0
w 207 -206 185 0
w 207 -206 -185 0
w 208 207 186 1
w 208 207 -186 1
w 208 -207 186 0
w 208 -207 -186 0
w 209 208 187 0.8908
w 209 208 -187 0.0704138
w 209 -208 187 0.899954
w 209 -208 -187 0.28877
w 210 209 188 0
w 210 209 -188 0
w 210 -209 188 1
w 210 -209 -188 1
w 211 210 189 0.948175
w 211 210 -189 0.12407
w 211 -210 189 0.0808256
w 211 -210 -189 0.732742
w 212 211 190 0.886143
w 212 211 -190 0.864497
w 212 -211 190 0.118186
w 212 -211 -190 0.484175
w 213 212 191 1
w 213 212 -191 0
w 213 -212 191 1
w 213 -212 -191 0
w 214 213 192 1
w 214 213 -192 1
w 214 -213 192 0
w 214 -213 -192 1
w 215 214 193 0
w 215 214 -193 0
w 215 -214 193 0
w 215 -214 -193 1
w 216 215 194 1
w 216 215 -194 1
w 216 -215 194 1
w 216 -215 -194 0
w 217 216 195 0.724979
w 217 216 -195 0.307704
w 217 -216 195 0.0982194
w 217 -216 -195 0.805804
w 218 217 196 1
w 218 217 -196 0
w 218 -217 196 1
w 218 -217 -196 1
w 219 218 197 1
w 219 218 -197 1
w 219 -218 197 0
w 219 -218 -197 0
w 220 219 198 0.998103
w 220 219 -198 0.450961
w 220 -219 198 0.273926
w 220 -219 -198 0.234502
w 221 199 0
w 221 -199 1
w 222 221 200 1
w 222 221 -200 0
w 222 -221 200 0
w 222 -221 -200 0
w 223 222 201 1
w 223 222 -201 1
w 223 -222 201 1
w 223 -222 -201 0
w 224 223 202 1
w 224 223 -202 0
w 224 -223 202 1
w 224 -223 -202 0
w 225 224 203 0
w 225 224 -203 1
w 225 -224 203 1
w 225 -224 -203 1
w 226 225 204 1
w 226 225 -204 1
w 226 -225 204 1
w 226 -225 -204 0
w 227 226 205 0
w 227 226 -205 1
w 227 -226 205 0
w 227 -226 -205 0
w 228 227 206 0
w 228 227 -206 0
w 228 -227 206 1
w 228 -227 -206 0
w 229 228 207 0
w 229 228 -207 1
w 229 -228 207 1
w 229 -228 -207 1
w 230 229 208 0
w 230 229 -208 1
w 230 -229 208 1
w 230 -229 -208 0
w 231 230 209 0
w 231 230 -209 1
w 231 -230 209 1
w 231 -230 -209 1
w 232 231 210 0
w 232 231 -210 0
w 232 -231 210 1
w 232 -231 -210 0
w 233 232 211 1
w 233 232 -211 0
w 233 -232 211 1
w 233 -232 -211 1
w 234 233 212 0
w 234 233 -212 1
w 234 -233 212 0
w 234 -233 -212 0
w 235 234 213 0
w 235 234 -213 1
w 235 -234 213 0
w 235 -234 -213 1
w 236 235 214 0
w 236 235 -214 0
w 236 -235 214 1
w 236 -235 -214 0
w 237 236 215 0
w 237 236 -215 0
w 237 -236 215 0
w 237 -236 -215 1
w 238 237 216 0
w 238 237 -216 1
w 238 -237 216 1
w 238 -237 -216 1
w 239 238 217 1
w 239 238 -217 1
w 239 -238 217 0
w 239 -238 -217 0
w 240 239 218 0
w 240 239 -218 0
w 240 -239 218 1
w 240 -239 -218 0
w 241 240 219 1
w 241 240 -219 0
w 241 -240 219 1
w 241 -240 -219 0
w 242 241 220 0
w 242 241 -220 1
w 242 -241 220 0
w 242 -241 -220 0
w 243 221 0
w 243 -221 1
w 244 243 222 0
w 244 243 -222 1
w 244 -243 222 0
w 244 -243 -222 1
w 245 244 223 0
w 245 244 -223 1
w 245 -244 223 0
w 245 -244 -223 1
w 246 245 224 1
w 246 245 -224 1
w 246 -245 224 0
w 246 -245 -224 0
w 247 246 225 0
w 247 246 -225 1
w 247 -246 225 0
w 247 -246 -225 1
w 248 247 226 0
w 248 247 -226 1
w 248 -247 226 1
w 248 -247 -226 1
w 249 248 227 0
w 249 248 -227 1
w 249 -248 227 1
w 249 -248 -227 0
w 250 249 228 1
w 250 249 -228 0
w 250 -249 228 0
w 250 -249 -228 0
w 251 250 229 0
w 251 250 -229 1
w 251 -250 229 0
w 251 -250 -229 1
w 252 251 230 1
w 252 251 -230 1
w 252 -251 230 1
w 252 -251 -230 0
w 253 252 231 0
w 253 252 -231 1
w 253 -252 231 1
w 253 -252 -231 1
w 254 253 232 0
w 254 253 -232 0
w 254 -253 232 1
w 254 -253 -232 1
w 255 254 233 1
w 255 254 -233 0
w 255 -254 233 1
w 255 -254 -233 1
w 256 255 234 1
w 256 255 -234 1
w 256 -255 234 1
w 256 -255 -234 0
w 257 256 235 0
w 257 256 -235 0
w 257 -256 235 1
w 257 -256 -235 1
w 258 257 236 0
w 258 257 -236 0
w 258 -257 236 1
w 258 -257 -236 0
w 259 258 237 0.713692
w 259 258 -237 0.466474
w 259 -258 237 0.0578264
w 259 -258 -237 0.979872
w 260 259 238 1
w 260 259 -238 1
w 260 -259 238 1
w 260 -259 -238 0
w 261 260 239 0
w 261 260 -239 0
w 261 -260 239 1
w 261 -260 -239 1
w 262 261 240 0
w 262 261 -240 0
w 262 -261 240 1
w 262 -261 -240 0
w 263 262 241 0
w 263 262 -241 0
w 263 -262 241 0
w 263 -262 -241 1
w 264 263 242 0
w 264 263 -242 0
w 264 -263 242 1
w 264 -263 -242 1
w 265 243 0
w 265 -243 1
w 266 265 244 0
w 266 265 -244 0
w 266 -265 244 1
w 266 -265 -244 1
w 267 266 245 0
w 267 266 -245 1
w 267 -266 245 0
w 267 -266 -245 0
w 268 267 246 1
w 268 267 -246 1
w 268 -267 246 0
w 268 -267 -246 0
w 269 268 247 0.917163
w 269 268 -247 0.0720919
w 269 -268 247 0.33798
w 269 -268 -247 0.24909
w 270 269 248 0
w 270 269 -248 1
w 270 -269 248 1
w 270 -269 -248 0
w 271 270 249 1
w 271 270 -249 1
w 271 -270 249 1
w 271 -270 -249 0
w 272 271 250 1
w 272 271 -250 1
w 272 -271 250 1
w 272 -271 -250 0
w 273 272 251 0
w 273 272 -251 1
w 273 -272 251 1
w 273 -272 -251 0
w 274 273 252 0
w 274 273 -252 0
w 274 -273 252 0
w 274 -273 -252 1
w 275 274 253 0
w 275 274 -253 1
w 275 -274 253 0
w 275 -274 -253 0
w 276 275 254 0
w 276 275 -254 0
w 276 -275 254 1
w 276 -275 -254 0
w 277 276 255 0.800251
w 277 276 -255 0.971896
w 277 -276 255 0.90849
w 277 -276 -255 0.435979
w 278 277 256 0
w 278 277 -256 0
w 278 -277 256 0
w 278 -277 -256 1
w 279 278 257 0.928217
w 279 278 -257 0.976539
w 279 -278 257 0.30618
w 279 -278 -257 0.827583
w 280 279 258 1
w 280 279 -258 0
w 280 -279 258 0
w 280 -279 -258 1
w 281 280 259 1
w 281 280 -259 0
w 281 -280 259 0
w 281 -280 -259 1
w 282 281 260 1
w 282 281 -260 1
w 282 -281 260 0
w 282 -281 -260 0
w 283 282 261 0
w 283 282 -261 0
w 283 -282 261 0
w 283 -282 -261 1
w 284 283 262 0
w 284 283 -262 0
w 284 -283 262 1
w 284 -283 -262 1
w 285 284 263 0
w 285 284 -263 1
w 285 -284 263 0
w 285 -284 -263 0
w 286 285 264 1
w 286 285 -264 0
w 286 -285 264 0
w 286 -285 -264 0
w 287 265 1
w 287 -265 0
w 288 287 266 0
w 288 287 -266 1
w 288 -287 266 1
w 288 -287 -266 0
w 289 288 267 0.448073
w 289 288 -267 0.82008
w 289 -288 267 0.363758
w 289 -288 -267 0.136058
w 290 289 268 1
w 290 289 -268 0
w 290 -289 268 0
w 290 -289 -268 0
w 291 290 269 1
w 291 290 -269 0
w 291 -290 269 0
w 291 -290 -269 0
w 292 291 270 0
w 292 291 -270 0
w 292 -291 270 1
w 292 -291 -270 1
w 293 292 271 0
w 293 292 -271 1
w 293 -292 271 1
w 293 -292 -271 1
w 294 293 272 1
w 294 293 -272 0
w 294 -293 272 1
w 294 -293 -272 1
w 295 294 273 0
w 295 294 -273 0
w 295 -294 273 1
w 295 -294 -273 0
w 296 295 274 1
w 296 295 -274 0
w 296 -295 274 1
w 296 -295 -274 1
w 297 296 275 0
w 297 296 -275 1
w 297 -296 275 0
w 297 -296 -275 0
w 298 297 276 1
w 298 297 -276 0
w 298 -297 276 1
w 298 -297 -276 1
w 299 298 277 0
w 299 298 -277 1
w 299 -298 277 0
w 299 -298 -277 1
w 300 299 278 0
w 300 299 -278 1
w 300 -299 278 1
w 300 -299 -278 1
w 301 300 279 0
w 301 300 -279 0
w 301 -300 279 0
w 301 -300 -279 1
w 302 301 280 1
w 302 301 -280 0
w 302 -301 280 0
w 302 -301 -280 1
w 303 302 281 0
w 303 302 -281 1
w 303 -302 281 1
w 303 -302 -281 1
w 304 303 282 0
w 304 303 -282 0
w 304 -303 282 1
w 304 -303 -282 1
w 305 304 283 0
w 305 304 -283 0
w 305 -304 283 0
w 305 -304 -283 1
w 306 305 284 1
w 306 305 -284 0
w 306 -305 284 0
w 306 -305 -284 0
w 307 306 285 0
w 307 306 -285 0
w 307 -306 285 1
w 307 -306 -285 1
w 308 307 286 1
w 308 307 -286 1
w 308 -307 286 0
w 308 -307 -286 0
w 309 287 1
w 309 -287 0
w 310 309 288 0
w 310 309 -288 0
w 310 -309 288 1
w 310 -309 -288 0
w 311 310 289 0
w 311 310 -289 0
w 311 -310 289 1
w 311 -310 -289 0
w 312 311 290 0.0712127
w 312 311 -290 0.169572
w 312 -311 290 0.489794
w 312 -311 -290 0.719461
w 313 312 291 1
w 313 312 -291 0
w 313 -312 291 1
w 313 -312 -291 1
w 314 313 292 0
w 314 313 -292 0
w 314 -313 292 1
w 314 -313 -292 0
w 315 314 293 1
w 315 314 -293 1
w 315 -314 293 1
w 315 -314 -293 0
w 316 315 294 1
w 316 315 -294 0
w 316 -315 294 0
w 316 -315 -294 0
w 317 316 295 0
w 317 316 -295 0
w 317 -316 295 1
w 317 -316 -295 0
w 318 317 296 0
w 318 317 -296 0
w 318 -317 296 0
w 318 -317 -296 1
w 319 318 297 1
w 319 318 -297 0
w 319 -318 297 1
w 319 -318 -297 1
w 320 319 298 1
w 320 319 -298 1
w 320 -319 298 1
w 320 -319 -298 0
w 321 320 299 1
w 321 320 -299 1
w 321 -320 299 1
w 321 -320 -299 0
w 322 321 300 1
w 322 321 -300 0
w 322 -321 300 1
w 322 -321 -300 0
w 323 322 301 1
w 323 322 -301 0
w 323 -322 301 1
w 323 -322 -301 1
w 324 323 302 1
w 324 323 -302 0
w 324 -323 302 0
w 324 -323 -302 0
w 325 324 303 1
w 325 324 -303 1
w 325 -324 303 0
w 325 -324 -303 1
w 326 325 304 1
w 326 325 -304 0
w 326 -325 304 0
w 326 -325 -304 1
w 327 326 305 1
w 327 326 -305 0
w 327 -326 305 1
w 327 -326 -305 0
w 328 327 306 1
w 328 327 -306 0
w 328 -327 306 1
w 328 -327 -306 0
w 329 328 307 1
w 329 328 -307 1
w 329 -328 307 0
w 329 -328 -307 0
w 330 329 308 1
w 330 329 -308 1
w 330 -329 308 0
w 330 -329 -308 1
w 331 309 1
w 331 -309 0
w 332 331 310 1
w 332 331 -310 0
w 332 -331 310 0
w 332 -331 -310 0
w 333 332 311 1
w 333 332 -311 1
w 333 -332 311 0
w 333 -332 -311 0
w 334 333 312 0
w 334 333 -312 1
w 334 -333 312 0
w 334 -333 -312 1
w 335 334 313 1
w 335 334 -313 1
w 335 -334 313 1
w 335 -334 -313 0
w 336 335 314 1
w 336 335 -314 1
w 336 -335 314 1
w 336 -335 -314 0
w 337 336 315 0
w 337 336 -315 0
w 337 -336 315 0
w 337 -336 -315 1
w 338 337 316 0
w 338 337 -316 0
w 338 -337 316 1
w 338 -337 -316 0
w 339 338 317 1
w 339 338 -317 1
w 339 -338 317 0
w 339 -338 -317 1
w 340 339 318 0
w 340 339 -318 1
w 340 -339 318 1
w 340 -339 -318 1
w 341 340 319 0
w 341 340 -319 1
w 341 -340 319 1
w 341 -340 -319 1
w 342 341 320 0
w 342 341 -320 0
w 342 -341 320 1
w 342 -341 -320 1
w 343 342 321 0
w 343 342 -321 1
w 343 -342 321 1
w 343 -342 -321 1
w 344 343 322 0.536817
w 344 343 -322 0.397973
w 344 -343 322 0.332527
w 344 -343 -322 0.594486
w 345 344 323 0.32223
w 345 344 -323 0.802178
w 345 -344 323 0.466897
w 345 -344 -323 0.324707
w 346 345 324 1
w 346 345 -324 1
w 346 -345 324 0
w 346 -345 -324 0
w 347 346 325 0
w 347 346 -325 1
w 347 -346 325 1
w 347 -346 -325 1
w 348 347 326 1
w 348 347 -326 1
w 348 -347 326 0
w 348 -347 -326 0
w 349 348 327 0
w 349 348 -327 0
w 349 -348 327 1
w 349 -348 -327 1
w 350 349 328 1
w 350 349 -328 0
w 350 -349 328 0
w 350 -349 -328 0
w 351 350 329 0.181505
w 351 350 -329 0.383305
w 351 -350 329 0.71505
w 351 -350 -329 0.648402
w 352 351 330 0
w 352 351 -330 0
w 352 -351 330 1
w 352 -351 -330 0
w 353 331 0
w 353 -331 1
w 354 353 332 0
w 354 353 -332 1
w 354 -353 332 1
w 354 -353 -332 0
w 355 354 333 0.241567
w 355 354 -333 0.94091
w 355 -354 333 0.937534
w 355 -354 -333 0.752716
w 356 355 334 1
w 356 355 -334 0
w 356 -355 334 0
w 356 -355 -334 1
w 357 356 335 0
w 357 356 -335 1
w 357 -356 335 0
w 357 -356 -335 0
w 358 357 336 0.742877
w 358 357 -336 0.241785
w 358 -357 336 0.618888
w 358 -357 -336 0.45089
w 359 358 337 1
w 359 358 -337 0
w 359 -358 337 1
w 359 -358 -337 0
w 360 359 338 0.719291
w 360 359 -338 0.912177
w 360 -359 338 0.911259
w 360 -359 -338 0.902678
w 361 360 339 0
w 361 360 -339 1
w 361 -360 339 0
w 361 -360 -339 1
w 362 361 340 1
w 362 361 -340 1
w 362 -361 340 0
w 362 -361 -340 1
w 363 362 341 0
w 363 362 -341 1
w 363 -362 341 1
w 363 -362 -341 1
w 364 363 342 1
w 364 363 -342 0
w 364 -363 342 1
w 364 -363 -342 0
w 365 364 343 1
w 365 364 -343 1
w 365 -364 343 1
w 365 -364 -343 0
w 366 365 344 1
w 366 365 -344 0
w 366 -365 344 0
w 366 -365 -344 1
w 367 366 345 0.164618
w 367 366 -345 0.39186
w 367 -366 345 0.101611
w 367 -366 -345 0.564741
w 368 367 346 1
w 368 367 -346 0
w 368 -367 346 0
w 368 -367 -346 0
w 369 368 347 0
w 369 368 -347 0
w 369 -368 347 1
w 369 -368 -347 0
w 370 369 348 1
w 370 369 -348 1
w 370 -369 348 1
w 370 -369 -348 0
w 371 370 349 0
w 371 370 -349 1
w 371 -370 349 0
w 371 -370 -349 1
w 372 371 350 0
w 372 371 -350 1
w 372 -371 350 0
w 372 -371 -350 1
w 373 372 351 0
w 373 372 -351 1
w 373 -372 351 0
w 373 -372 -351 0
w 374 373 352 1
w 374 373 -352 0
w 374 -373 352 0
w 374 -373 -352 1
w 375 353 1
w 375 -353 0
w 376 375 354 0
w 376 375 -354 1
w 376 -375 354 1
w 376 -375 -354 1
w 377 376 355 1
w 377 376 -355 0
w 377 -376 355 1
w 377 -376 -355 1
w 378 377 356 1
w 378 377 -356 1
w 378 -377 356 1
w 378 -377 -356 0
w 379 378 357 1
w 379 378 -357 1
w 379 -378 357 0
w 379 -378 -357 0
w 380 379 358 1
w 380 379 -358 0
w 380 -379 358 0
w 380 -379 -358 1
w 381 380 359 0
w 381 380 -359 1
w 381 -380 359 1
w 381 -380 -359 0
w 382 381 360 0.292803
w 382 381 -360 0.316943
w 382 -381 360 0.813236
w 382 -381 -360 0.0904797
w 383 382 361 1
w 383 382 -361 1
w 383 -382 361 0
w 383 -382 -361 0
w 384 383 362 1
w 384 383 -362 0
w 384 -383 362 0
w 384 -383 -362 1
w 385 384 363 0
w 385 384 -363 0
w 385 -384 363 1
w 385 -384 -363 0
w 386 385 364 0
w 386 385 -364 1
w 386 -385 364 0
w 386 -385 -364 0
w 387 386 365 0
w 387 386 -365 1
w 387 -386 365 0
w 387 -386 -365 1
w 388 387 366 0
w 388 387 -366 0
w 388 -387 366 1
w 388 -387 -366 0
w 389 388 367 1
w 389 388 -367 1
w 389 -388 367 0
w 389 -388 -367 1
w 390 389 368 1
w 390 389 -368 1
w 390 -389 368 0
w 390 -389 -368 1
w 391 390 369 0
w 391 390 -369 1
w 391 -390 369 0
w 391 -390 -369 1
w 392 391 370 1
w 392 391 -370 1
w 392 -391 370 1
w 392 -391 -370 0
w 393 392 371 1
w 393 392 -371 0
w 393 -392 371 1
w 393 -392 -371 0
w 394 393 372 0
w 394 393 -372 0
w 394 -393 372 1
w 394 -393 -372 0
w 395 394 373 0
w 395 394 -373 1
w 395 -394 373 1
w 395 -394 -373 0
w 396 395 374 0
w 396 395 -374 1
w 396 -395 374 1
w 396 -395 -374 1
w 397 375 1
w 397 -375 0
w 398 397 376 0.368547
w 398 397 -376 0.0833105
w 398 -397 376 0.5551
w 398 -397 -376 0.446458
w 399 398 377 0
w 399 398 -377 0
w 399 -398 377 1
w 399 -398 -377 0
w 400 399 378 1
w 400 399 -378 1
w 400 -399 378 0
w 400 -399 -378 1
w 401 400 379 0
w 401 400 -379 0
w 401 -400 379 1
w 401 -400 -379 1
w 402 401 380 1
w 402 401 -380 0
w 402 -401 380 0
w 402 -401 -380 0
w 403 402 381 1
w 403 402 -381 0
w 403 -402 381 1
w 403 -402 -381 0
w 404 403 382 1
w 404 403 -382 0
w 404 -403 382 0
w 404 -403 -382 1
w 405 404 383 1
w 405 404 -383 1
w 405 -404 383 0
w 405 -404 -383 0
w 406 405 384 0.61634
w 406 405 -384 0.557941
w 406 -405 384 0.864199
w 406 -405 -384 0.0959869
w 407 406 385 0.112069
w 407 406 -385 0.254044
w 407 -406 385 0.388024
w 407 -406 -385 0.0734353
w 408 407 386 1
w 408 407 -386 1
w 408 -407 386 0
w 408 -407 -386 0
w 409 408 387 1
w 409 408 -387 1
w 409 -408 387 1
w 409 -408 -387 0
w 410 409 388 1
w 410 409 -388 0
w 410 -409 388 0
w 410 -409 -388 1
w 411 410 389 0
w 411 410 -389 0
w 411 -410 389 0
w 411 -410 -389 1
w 412 411 390 0
w 412 411 -390 1
w 412 -411 390 1
w 412 -411 -390 1
w 413 412 391 0
w 413 412 -391 1
w 413 -412 391 1
w 413 -412 -391 1
w 414 413 392 1
w 414 413 -392 0
w 414 -413 392 0
w 414 -413 -392 0
w 415 414 393 0
w 415 414 -393 1
w 415 -414 393 0
w 415 -414 -393 1
w 416 415 394 0
w 416 415 -394 0
w 416 -415 394 1
w 416 -415 -394 0
w 417 416 395 0
w 417 416 -395 0
w 417 -416 395 0
w 417 -416 -395 1
w 418 417 396 1
w 418 417 -396 1
w 418 -417 396 0
w 418 -417 -396 0
w 419 397 1
w 419 -397 0
w 420 419 398 0
w 420 419 -398 1
w 420 -419 398 1
w 420 -419 -398 1
w 421 420 399 0.824154
w 421 420 -399 0.617696
w 421 -420 399 0.0194689
w 421 -420 -399 0.13681
w 422 421 400 0
w 422 421 -400 1
w 422 -421 400 1
w 422 -421 -400 0
w 423 422 401 0
w 423 422 -401 0
w 423 -422 401 1
w 423 -422 -401 1
w 424 423 402 1
w 424 423 -402 0
w 424 -423 402 0
w 424 -423 -402 0
w 425 424 403 0
w 425 424 -403 0
w 425 -424 403 1
w 425 -424 -403 0
w 426 425 404 0
w 426 425 -404 1
w 426 -425 404 1
w 426 -425 -404 1
w 427 426 405 0
w 427 426 -405 1
w 427 -426 405 0
w 427 -426 -405 0
w 428 427 406 1
w 428 427 -406 0
w 428 -427 406 1
w 428 -427 -406 0
w 429 428 407 1
w 429 428 -407 1
w 429 -428 407 0
w 429 -428 -407 0
w 430 429 408 1
w 430 429 -408 1
w 430 -429 408 0
w 430 -429 -408 1
w 431 430 409 1
w 431 430 -409 1
w 431 -430 409 1
w 431 -430 -409 0
w 432 431 410 1
w 432 431 -410 0
w 432 -431 410 0
w 432 -431 -410 0
w 433 432 411 0
w 433 432 -411 0
w 433 -432 411 1
w 433 -432 -411 0
w 434 433 412 0
w 434 433 -412 1
w 434 -433 412 1
w 434 -433 -412 1
w 435 434 413 0
w 435 434 -413 1
w 435 -434 413 0
w 435 -434 -413 0
w 436 435 414 0.0895226
w 436 435 -414 0.917275
w 436 -435 414 0.668937
w 436 -435 -414 0.693121
w 437 436 415 0
w 437 436 -415 0
w 437 -436 415 1
w 437 -436 -415 0
w 438 437 416 1
w 438 437 -416 0
w 438 -437 416 0
w 438 -437 -416 0
w 439 438 417 0
w 439 438 -417 1
w 439 -438 417 0
w 439 -438 -417 1
w 440 439 418 1
w 440 439 -418 1
w 440 -439 418 0
w 440 -439 -418 1
w 441 419 0
w 441 -419 1
w 442 441 420 1
w 442 441 -420 0
w 442 -441 420 1
w 442 -441 -420 1
w 443 442 421 0
w 443 442 -421 1
w 443 -442 421 1
w 443 -442 -421 0
w 444 443 422 0.904022
w 444 443 -422 0.418354
w 444 -443 422 0.275852
w 444 -443 -422 0.123926
w 445 444 423 1
w 445 444 -423 0
w 445 -444 423 1
w 445 -444 -423 1
w 446 445 424 1
w 446 445 -424 1
w 446 -445 424 0
w 446 -445 -424 0
w 447 446 425 1
w 447 446 -425 0
w 447 -446 425 0
w 447 -446 -425 0
w 448 447 426 0.885929
w 448 447 -426 0.775056
w 448 -447 426 0.126016
w 448 -447 -426 0.477459
w 449 448 427 1
w 449 448 -427 0
w 449 -448 427 0
w 449 -448 -427 0
w 450 449 428 1
w 450 449 -428 0
w 450 -449 428 1
w 450 -449 -428 0
w 451 450 429 0
w 451 450 -429 1
w 451 -450 429 0
w 451 -450 -429 0
w 452 451 430 0
w 452 451 -430 1
w 452 -451 430 1
w 452 -451 -430 0
w 453 452 431 0
w 453 452 -431 1
w 453 -452 431 1
w 453 -452 -431 0
w 454 453 432 1
w 454 453 -432 0
w 454 -453 432 1
w 454 -453 -432 1
w 455 454 433 1
w 455 454 -433 0
w 455 -454 433 1
w 455 -454 -433 1
w 456 455 434 0
w 456 455 -434 1
w 456 -455 434 0
w 456 -455 -434 1
w 457 456 435 0.98068
w 457 456 -435 0.640633
w 457 -456 435 0.133139
w 457 -456 -435 0.675139
w 458 457 436 1
w 458 457 -436 0
w 458 -457 436 1
w 458 -457 -436 1
w 459 458 437 0
w 459 458 -437 1
w 459 -458 437 0
w 459 -458 -437 1
w 460 459 438 0
w 460 459 -438 0
w 460 -459 438 1
w 460 -459 -438 1
w 461 460 439 0
w 461 460 -439 0
w 461 -460 439 1
w 461 -460 -439 1
w 462 461 440 0
w 462 461 -440 1
w 462 -461 440 1
w 462 -461 -440 1
w 463 441 1
w 463 -441 0
w 464 463 442 0.657606
w 464 463 -442 0.658824
w 464 -463 442 0.787228
w 464 -463 -442 0.904471
w 465 464 443 1
w 465 464 -443 0
w 465 -464 443 0
w 465 -464 -443 1
w 466 465 444 1
w 466 465 -444 0
w 466 -465 444 0
w 466 -465 -444 1
w 467 466 445 1
w 467 466 -445 0
w 467 -466 445 1
w 467 -466 -445 1
w 468 467 446 0.888965
w 468 467 -446 0.15286
w 468 -467 446 0.98948
w 468 -467 -446 0.461301
w 469 468 447 0.533301
w 469 468 -447 0.464306
w 469 -468 447 0.298324
w 469 -468 -447 0.0577678
w 470 469 448 0
w 470 469 -448 1
w 470 -469 448 0
w 470 -469 -448 1
w 471 470 449 0
w 471 470 -449 0
w 471 -470 449 1
w 471 -470 -449 0
w 472 471 450 1
w 472 471 -450 0
w 472 -471 450 1
w 472 -471 -450 0
w 473 472 451 1
w 473 472 -451 0
w 473 -472 451 0
w 473 -472 -451 0
w 474 473 452 1
w 474 473 -452 1
w 474 -473 452 1
w 474 -473 -452 0
w 475 474 453 1
w 475 474 -453 1
w 475 -474 453 0
w 475 -474 -453 1
w 476 475 454 1
w 476 475 -454 0
w 476 -475 454 1
w 476 -475 -454 0
w 477 476 455 1
w 477 476 -455 0
w 477 -476 455 1
w 477 -476 -455 1
w 478 477 456 1
w 478 477 -456 1
w 478 -477 456 1
w 478 -477 -456 0
w 479 478 457 0
w 479 478 -457 1
w 479 -478 457 0
w 479 -478 -457 0
w 480 479 458 1
w 480 479 -458 1
w 480 -479 458 1
w 480 -479 -458 0
w 481 480 459 1
w 481 480 -459 1
w 481 -480 459 1
w 481 -480 -459 0
w 482 481 460 1
w 482 481 -460 1
w 482 -481 460 1
w 482 -481 -460 0
w 483 482 461 0
w 483 482 -461 1
w 483 -482 461 1
w 483 -482 -461 1
w 484 483 462 0
w 484 483 -462 0
w 484 -483 462 0
w 484 -483 -462 1